p tw 50 161
0 1
0 2
0 25
0 26
0 45
1 2
1 43
1 26
1 45
1 44
2 43
3 4
3 5
3 6
3 34
3 41
3 42
3 46
4 5
4 6
4 8
4 35
4 36
4 7
5 6
5 35
5 36
5 41
5 46
5 13
6 8
6 42
7 8
7 9
7 36
7 23
7 24
7 47
8 9
8 36
9 47
9 23
10 11
10 12
10 13
10 17
10 18
10 46
10 48
10 31
11 12
11 13
11 17
11 18
11 22
11 37
11 40
12 13
12 38
12 39
12 40
12 37
12 35
13 35
13 46
13 48
13 38
14 15
14 16
14 23
14 24
14 38
14 39
14 44
15 16
15 43
15 44
15 39
16 23
16 24
16 47
17 18
17 19
17 21
17 22
17 28
17 37
18 19
18 28
18 31
18 48
18 30
19 20
19 21
19 22
19 27
19 28
20 21
20 27
20 28
21 22
21 25
22 25
22 26
22 37
23 24
23 47
23 36
24 35
24 36
24 38
24 39
25 26
25 37
26 37
26 45
26 40
27 28
27 30
28 30
28 31
29 30
29 31
29 48
29 49
29 32
30 31
31 48
31 49
32 33
32 34
32 49
32 41
33 34
33 42
34 41
34 42
34 49
35 36
35 38
35 46
36 38
37 40
37 45
38 39
38 40
39 40
39 44
39 45
40 44
40 45
41 42
41 46
41 49
41 48
43 44
43 45
44 45
46 48
46 49
48 49
